%%% static parameters %%%
timespan = 1;
Fact = [2];
Distr1 = [5];
Distr2 = [10];
Clients_N = [100];
Demand_W = [15];
Lt0 = [4];
Lt1 = [4];
SS_ = [0.85];
DS_D = [8];
K = [200];
MA = [500];
%%% dynamic parameters %%%
lost_ratio_sales_ret_th = 0.5763387577442679;
lost_ratio_sales_ret_w = 3;
lost_ratio_sales_dis_th = 0.2648112635131489;
lost_ratio_sales_dis_w = 30;
lost_ratio_sales_fac_th = 0.3025373986931674;
lost_ratio_sales_fac_w = 43;
stock_customer_MA_mean_relative_th = 0.47152598402053714;
stock_customer_MA_mean_relative_w = 3;
stock_distributor_MA_mean_relative_th = 0.7811692977670115;
stock_distributor_MA_mean_relative_w = 59;
stock_retailer_MA_mean_relative_th = 0.5520491339428566;
stock_retailer_MA_mean_relative_w = 17;
stock_factory_MA_mean_relative_th = 0.3961353282550396;
stock_factory_MA_mean_relative_w = 2;
